
--- Job z_BM_ref.gms Start 06/30/15 12:10:57 24.4.5 r52258 WEX-VS8 x86 32bit/MS Windows
GAMS 24.4.5   Copyright (C) 1987-2015 GAMS Development. All rights reserved
Licensee: Ignacio E. Grossmann                           G150105/0001AO-GEN
          Carnegie Mellon University, Dept. of Chemical Engineering  DC9476
          License for teaching and research at degree granting institutions
--- Starting continued compilation
--- Workfile was generated under GAMS version WIN244-244
--- z_BM_ref.gms(32) 3 Mb
--- .max_time_ref.gms(1) 3 Mb
--- z_BM_ref.gms(52) 3 Mb
--- Starting execution: elapsed 0:00:00.004
--- z_BM_ref.gms(148) 3 Mb
--- Generating RMIP model prob
--- z_BM_ref.gms(152) 3 Mb
---   141 rows  73 columns  432 non-zeroes
---   60 discrete-columns
--- Executing CPLEX: elapsed 0:00:00.034

IBM ILOG CPLEX   24.4.5 r52258 Released May 26, 2015 VS8 x86 32bit/MS Windows 
Cplex 12.6.1.0

Reading data...
Starting Cplex...
Space for names approximately 0.00 Mb
Use option 'names no' to turn use of names off
Tried aggregator 1 time.
No LP presolve or aggregator reductions.
Presolve time = 0.00 sec. (0.05 ticks)
Initializing dual steep norms . . .

Iteration log . . .
Iteration:     1   Scaled dual infeas =             0.000000
Iteration:     2   Dual objective     =             5.000000
LP status(1): optimal
Cplex Time: 0.00sec (det. 0.17 ticks)

Optimal solution found.
Objective :           5.000000

--- Restarting execution
--- z_BM_ref.gms(152) 2 Mb
--- Reading solution for model prob
--- Executing after solve: elapsed 0:00:00.167
--- z_BM_ref.gms(154) 3 Mb
--- Generating MIP model prob
--- z_BM_ref.gms(156) 3 Mb
---   141 rows  73 columns  432 non-zeroes
---   60 discrete-columns
--- Executing CPLEX: elapsed 0:00:00.180

IBM ILOG CPLEX   24.4.5 r52258 Released May 26, 2015 VS8 x86 32bit/MS Windows 
--- GAMS/Cplex licensed for continuous and discrete problems.
Cplex 12.6.1.0

Reading data...
Starting Cplex...
Space for names approximately 0.00 Mb
Use option 'names no' to turn use of names off
Tried aggregator 1 time.
MIP Presolve modified 240 coefficients.
Reduced MIP has 141 rows, 73 columns, and 432 nonzeros.
Reduced MIP has 60 binaries, 0 generals, 0 SOSs, and 0 indicators.
Presolve time = 0.00 sec. (0.22 ticks)
Found incumbent of value 25.000000 after 0.01 sec. (0.76 ticks)
Probing time = 0.00 sec. (0.12 ticks)
Tried aggregator 1 time.
Reduced MIP has 141 rows, 73 columns, and 432 nonzeros.
Reduced MIP has 60 binaries, 0 generals, 0 SOSs, and 0 indicators.
Presolve time = 0.00 sec. (0.21 ticks)
Probing time = 0.00 sec. (0.12 ticks)
Clique table members: 75.
MIP emphasis: balance optimality and feasibility.
MIP search method: dynamic search.
Parallel mode: none, using 1 thread.
Tried aggregator 1 time.
No LP presolve or aggregator reductions.
Presolve time = 0.05 sec. (0.05 ticks)
Initializing dual steep norms . . .

Iteration log . . .
Iteration:     1   Dual objective     =             5.000000
Root relaxation solution time = 0.05 sec. (0.15 ticks)

        Nodes                                         Cuts/
   Node  Left     Objective  IInf  Best Integer    Best Bound    ItCnt     Gap

*     0+    0                           25.0000        5.0000            80.00%
Found incumbent of value 25.000000 after 0.08 sec. (1.62 ticks)
      0     0        5.0000    30       25.0000        5.0000       15   80.00%
*     0+    0                           20.0000        5.0000            75.00%
Found incumbent of value 20.000000 after 0.08 sec. (1.82 ticks)
      0     0        5.0000    16       20.0000      Cuts: 24       42   75.00%
*     0+    0                           11.0000        5.0000            54.55%
Found incumbent of value 11.000000 after 0.08 sec. (3.07 ticks)
      0     0        5.0524    35       11.0000      Cuts: 30       82   54.07%
      0     0        5.7500    19       11.0000      Cuts: 58      106   47.73%
      0     0        5.9375    22       11.0000      Cuts: 19      116   46.02%
      0     0        6.1538    13       11.0000      Cuts: 26      129   44.06%
*     0+    0                            9.0000        6.1538            31.62%
Found incumbent of value 9.000000 after 0.09 sec. (6.47 ticks)
      0     0        6.5000    13        9.0000   Flowcuts: 3      137   27.78%
      0     0        6.5000    15        9.0000      Cuts: 38      150   27.78%
      0     0        6.5000    15        9.0000      Cuts: 14      159   27.78%
*     0+    0                            8.0000        6.5000            18.75%
Found incumbent of value 8.000000 after 0.11 sec. (12.06 ticks)
      0     0        cutoff              8.0000        6.5000      159   18.75%
Elapsed time = 0.11 sec. (12.10 ticks, tree = 0.00 MB, solutions = 5)

Clique cuts applied:  4
Implied bound cuts applied:  3
Flow cuts applied:  12
Mixed integer rounding cuts applied:  6

Root node processing (before b&c):
  Real time             =    0.11 sec. (12.11 ticks)
Sequential b&c:
  Real time             =    0.00 sec. (0.00 ticks)
                          ------------
Total (root+branch&cut) =    0.11 sec. (12.11 ticks)
MIP status(101): integer optimal solution
Cplex Time: 0.11sec (det. 12.11 ticks)
Fixing integer variables, and solving final LP...
Tried aggregator 1 time.
LP Presolve eliminated 113 rows and 66 columns.
Reduced LP has 28 rows, 7 columns, and 56 nonzeros.
Presolve time = 0.00 sec. (0.05 ticks)

Iteration log . . .
Iteration:     1   Dual infeasibility =             0.000000
Iteration:     2   Dual objective     =             5.000000
Fixed MIP status(1): optimal
Cplex Time: 0.00sec (det. 0.12 ticks)

Proven optimal solution.

MIP Solution:            8.000000    (159 iterations, 0 nodes)
Final Solve:             8.000000    (6 iterations)

Best possible:           8.000000
Absolute gap:            0.000000
Relative gap:            0.000000

--- Restarting execution
--- z_BM_ref.gms(156) 2 Mb
--- Reading solution for model prob
--- Executing after solve: elapsed 0:00:00.352
--- z_BM_ref.gms(164) 3 Mb
*** Status: Normal completion
--- Job z_BM_ref.gms Stop 06/30/15 12:10:57 elapsed 0:00:00.359
